6 24 4 10
18 13 6 8 15 1 17 3 5 11 15 1 1 3 9 19 15 20 8 3 16 20 9 1 
6.4 6.65 4.25 3.64 2.61 3.93 4.37 3.22 7.65 5.99 4.14 2.02 6.38 5.44 1.39 0.2 7.71 3.78 1.99 2.47 5.99 2.63 1.48 7.13 
5.48 6.76 3.67 5.08 1.39 5.34 7.75 6.72 2.48 0.48 0.25 0.9 3.58 0.8 4.38 5.15 0.02 0.6 4.14 7.22 7.98 2.8 1.14 1.71 
4.37 7.58 4.57 2.29 0.78 7.78 2.82 6.54 6.35 3.2 6.24 5.79 2.86 0.49 6.77 3.83 5.85 3.52 7.59 2.75 7.94 3.12 1.7 2.67 
3.99 5.25 5.85 5.68 3.94 1.56 3.92 6.81 5 4.87 6.2 0.22 4.66 0.83 3.41 6.73 3.45 3.72 3.72 4.36 1.6 2.87 6.81 2.21 
4 4 4 4 4 4 4 4 4 4 4 4 4 4 4 4 4 4 4 4 4 4 4 4 
2.45 6.94 5.55 4.98 5.32 2.36 7.66 1.79 7.65 7.9 7.99 0.91 1.84 3.18 1.5 0.62 5.2 1.17 6.39 0.19 2.69 3.58 4.32 2.45 
1 1 1 1 1 1 1 1 1 1 1 1 1 1 1 1 1 1 1 1 1 1 1 1 
1 1 1 1 1 1 1 1 1 1 1 1 1 1 1 1 1 1 1 1 1 1 1 1 
1 1 1 1 1 1 1 1 1 1 1 1 1 1 1 1 1 1 1 1 1 1 1 1 
1 1 1 1 1 1 1 1 1 1 1 1 1 1 1 1 1 1 1 1 1 1 1 1 
1 1 1 1 1 1 1 1 1 1 1 1 1 1 1 1 1 1 1 1 1 1 1 1 
1 1 1 1 1 1 1 1 1 1 1 1 1 1 1 1 1 1 1 1 1 1 1 1 
0.01 0.01 0.01 0.01 0.01 0.01 0.01 0.01 0.01 0.01 0.01 0.01 0.01 0.01 0.01 0.01 0.01 0.01 0.01 0.01 0.01 0.01 0.01 0.01 
0.02 0.02 0.02 0.02 0.02 0.02 0.02 0.02 0.02 0.02 0.02 0.02 0.02 0.02 0.02 0.02 0.02 0.02 0.02 0.02 0.02 0.02 0.02 0.02 
0.03 0.03 0.03 0.03 0.03 0.03 0.03 0.03 0.03 0.03 0.03 0.03 0.03 0.03 0.03 0.03 0.03 0.03 0.03 0.03 0.03 0.03 0.03 0.03 
0.04 0.04 0.04 0.04 0.04 0.04 0.04 0.04 0.04 0.04 0.04 0.04 0.04 0.04 0.04 0.04 0.04 0.04 0.04 0.04 0.04 0.04 0.04 0.04 
0.05 0.05 0.05 0.05 0.05 0.05 0.05 0.05 0.05 0.05 0.05 0.05 0.05 0.05 0.05 0.05 0.05 0.05 0.05 0.05 0.05 0.05 0.05 0.05 
1 1 1 1 1 1 1 1 1 1 1 1 1 1 1 1 1 1 1 1 1 1 1 1 
